int:N_sessions=204;
set of int :numSessions = 1..N_sessions;
int :numLecturers = 50;
int :numDays = 5;
int :numSlots = 55;
int :numSlotsPerDay = 11;
int :availRooms = 15;
int :Days=5;
array [numSessions] of int :duration=[
  2, %  session 0
	2, %  session 1
	2, %  session 2
	2, %  session 3
	2, %  session 4
	2, %  session 5
	2, %  session 6
	2, %  session 7
	2, %  session 8
	2, %  session 9
	2, %  session 10
	2, %  session 11
	2, %  session 12
	2, %  session 13
	2, %  session 14
	2, %  session 15
	2, %  session 16
	2, %  session 17
	2, %  session 18
	2, %  session 19
	2, %  session 20
	2, %  session 21
	2, %  session 22
	2, %  session 23
	2, %  session 24
	2, %  session 25
	2, %  session 26
	2, %  session 27
	2, %  session 28
	2, %  session 29
	2, %  session 30
	2, %  session 31
	2, %  session 32
	2, %  session 33
	3, %  session 34
	3, %  session 35
	3, %  session 36
	3, %  session 37
	2, %  session 38
	1, %  session 39
	2, %  session 40
	1, %  session 41
	2, %  session 42
	1, %  session 43
	2, %  session 44
	2, %  session 45
	2, %  session 46
	2, %  session 47
	2, %  session 48
	2, %  session 49
	2, %  session 50
	2, %  session 51
	2, %  session 52
	2, %  session 53
	2, %  session 54
	2, %  session 55
	2, %  session 56
	2, %  session 57
	2, %  session 58
	2, %  session 59
	2, %  session 60
	2, %  session 61
	2, %  session 62
	2, %  session 63
	2, %  session 64
	2, %  session 65
	2, %  session 66
	2, %  session 67
	2, %  session 68
	2, %  session 69
	2, %  session 70
	2, %  session 71
	2, %  session 72
	2, %  session 73
	2, %  session 74
	2, %  session 75
	2, %  session 76
	2, %  session 77
	2, %  session 78
	2, %  session 79
	2, %  session 80
	2, %  session 81
	2, %  session 82
	2, %  session 83
	2, %  session 84
	2, %  session 85
	2, %  session 86
	2, %  session 87
	2, %  session 88
	2, %  session 89
	2, %  session 90
	2, %  session 91
	2, %  session 92
	2, %  session 93
	2, %  session 94
	2, %  session 95
	2, %  session 96
	3, %  session 97
	3, %  session 98
	2, %  session 99
	2, %  session 100
	2, %  session 101
	2, %  session 102
	2, %  session 103
	2, %  session 104
	2, %  session 105
	2, %  session 106
	2, %  session 107
	2, %  session 108
	2, %  session 109
	2, %  session 110
	2, %  session 111
	2, %  session 112
	2, %  session 113
	2, %  session 114
	2, %  session 115
	3, %  session 116
	3, %  session 117
	2, %  session 118
	2, %  session 119
	2, %  session 120
	2, %  session 121
	2, %  session 122
	2, %  session 123
	2, %  session 124
	2, %  session 125
	2, %  session 126
	2, %  session 127
	2, %  session 128
	2, %  session 129
	2, %  session 130
	2, %  session 131
	2, %  session 132
	2, %  session 133
	2, %  session 134
	2, %  session 135
	2, %  session 136
	2, %  session 137
	2, %  session 138
	2, %  session 139
	2, %  session 140
	2, %  session 141
	2, %  session 142
	2, %  session 143
	2, %  session 144
	2, %  session 145
	2, %  session 146
	2, %  session 147
	2, %  session 148
	2, %  session 149
	2, %  session 150
	2, %  session 151
	2, %  session 152
	2, %  session 153
	2, %  session 154
	2, %  session 155
	2, %  session 156
	2, %  session 157
	2, %  session 158
	2, %  session 159
	4, %  session 160
	4, %  session 161
	2, %  session 162
	2, %  session 163
	2, %  session 164
	2, %  session 165
	2, %  session 166
	2, %  session 167
	2, %  session 168
	2, %  session 169
	2, %  session 170
	2, %  session 171
	2, %  session 172
	2, %  session 173
	2, %  session 174
	2, %  session 175
	2, %  session 176
	2, %  session 177
	2, %  session 178
	2, %  session 179
	2, %  session 180
	2, %  session 181
	2, %  session 182
	2, %  session 183
	4, %  session 184
	4, %  session 185
	2, %  session 186
	2, %  session 187
	2, %  session 188
	2, %  session 189
	2, %  session 190
	2, %  session 191
	2, %  session 192
	2, %  session 193
	2, %  session 194
	2, %  session 195
	2, %  session 196
	2, %  session 197
	2, %  session 198
	2, %  session 199
	2, %  session 200
	2, %  session 201
	2, %  session 202
	2, %  session 203
	];
	
	array [numSessions] of int :semesters=[
	10, %  session 0
	10, %  session 1
	10, %  session 2
	10, %  session 3
	10, %  session 4
	10, %  session 5
	10, %  session 6
	10, %  session 7
	10, %  session 8
	10, %  session 9
	10, %  session 10
	10, %  session 11
	10, %  session 12
	10, %  session 13
	10, %  session 14
	10, %  session 15
	10, %  session 16
	10, %  session 17
	10, %  session 18
	1, %  session 19
	1, %  session 20
	1, %  session 21
	1, %  session 22
	1, %  session 23
	1, %  session 24
	1, %  session 25
	1, %  session 26
	1, %  session 27
	1, %  session 28
	1, %  session 29
	1, %  session 30
	1, %  session 31
	1, %  session 32
	1, %  session 33
	1, %  session 34
	1, %  session 35
	1, %  session 36
	1, %  session 37
	1, %  session 38
	1, %  session 39
	1, %  session 40
	1, %  session 41
	1, %  session 42
	1, %  session 43
	1, %  session 44
	1, %  session 45
	1, %  session 46
	1, %  session 47
	1, %  session 48
	1, %  session 49
	1, %  session 50
	1, %  session 51
	1, %  session 52
	1, %  session 53
	1, %  session 54
	1, %  session 55
	1, %  session 56
	2, %  session 57
	2, %  session 58
	2, %  session 59
	2, %  session 60
	2, %  session 61
	2, %  session 62
	2, %  session 63
	2, %  session 64
	2, %  session 65
	3, %  session 66
	3, %  session 67
	3, %  session 68
	3, %  session 69
	3, %  session 70
	3, %  session 71
	3, %  session 72
	3, %  session 73
	3, %  session 74
	3, %  session 75
	3, %  session 76
	3, %  session 77
	3, %  session 78
	3, %  session 79
	3, %  session 80
	4, %  session 81
	4, %  session 82
	4, %  session 83
	4, %  session 84
	4, %  session 85
	4, %  session 86
	4, %  session 87
	4, %  session 88
	4, %  session 89
	4, %  session 90
	4, %  session 91
	4, %  session 92
	4, %  session 93
	4, %  session 94
	4, %  session 95
	4, %  session 96
	4, %  session 97
	4, %  session 98
	5, %  session 99
	5, %  session 100
	5, %  session 101
	5, %  session 102
	5, %  session 103
	5, %  session 104
	5, %  session 105
	5, %  session 106
	5, %  session 107
	5, %  session 108
	5, %  session 109
	5, %  session 110
	5, %  session 111
	5, %  session 112
	5, %  session 113
	5, %  session 114
	6, %  session 115
	6, %  session 116
	6, %  session 117
	6, %  session 118
	6, %  session 119
	6, %  session 120
	6, %  session 121
	6, %  session 122
	6, %  session 123
	6, %  session 124
	6, %  session 125
	6, %  session 126
	6, %  session 127
	6, %  session 128
	6, %  session 129
	6, %  session 130
	6, %  session 131
	6, %  session 132
	6, %  session 133
	6, %  session 134
	6, %  session 135
	6, %  session 136
	6, %  session 137
	7, %  session 138
	7, %  session 139
	7, %  session 140
	7, %  session 141
	7, %  session 142
	7, %  session 143
	7, %  session 144
	7, %  session 145
	7, %  session 146
	7, %  session 147
	7, %  session 148
	7, %  session 149
	7, %  session 150
	7, %  session 151
	7, %  session 152
	7, %  session 153
	7, %  session 154
	7, %  session 155
	7, %  session 156
	7, %  session 157
	7, %  session 158
	7, %  session 159
	8, %  session 160
	8, %  session 161
	8, %  session 162
	8, %  session 163
	8, %  session 164
	8, %  session 165
	8, %  session 166
	8, %  session 167
	8, %  session 168
	8, %  session 169
	8, %  session 170
	8, %  session 171
	8, %  session 172
	8, %  session 173
	8, %  session 174
	8, %  session 175
	8, %  session 176
	8, %  session 177
	8, %  session 178
	8, %  session 179
	8, %  session 180
	8, %  session 181
	8, %  session 182
	8, %  session 183
	9, %  session 184
	9, %  session 185
	9, %  session 186
	9, %  session 187
	9, %  session 188
	9, %  session 189
	9, %  session 190
	9, %  session 191
	9, %  session 192
	9, %  session 193
	9, %  session 194
	9, %  session 195
	9, %  session 196
	9, %  session 197
	9, %  session 198
	9, %  session 199
	9, %  session 200
	9, %  session 201
	9, %  session 202
	9, %  session 203
	];
	
	array [numSessions] of string :courses =[
	"ADMON. SISTEMAS DE INFORMACIÓN", %  session 0
	"ADMON. SISTEMAS DE INFORMACIÓN", %  session 1
	"AUDITORÍA DE SISTEMAS", %  session 2
	"AUDITORÍA DE SISTEMAS", %  session 3
	"CONSTITUCIÓN POLITICA", %  session 4
	"CONSTITUCIÓN POLITICA", %  session 5
	"CONSTITUCIÓN POLITICA", %  session 6
	"PLANEACIÓN ESTRATEGICA DE SISTEMAS", %  session 7
	"PLANEACIÓN ESTRATEGICA DE SISTEMAS", %  session 8
	"PLANEACIÓN ESTRATEGICA DE SISTEMAS", %  session 9
	"PLANEACIÓN ESTRATEGICA DE SISTEMAS", %  session 10
	"GERENCIA DE PROYECTOS", %  session 11
	"GERENCIA DE PROYECTOS", %  session 12
	"GERENCIA DE PROYECTOS", %  session 13
	"GERENCIA DE PROYECTOS", %  session 14
	"PROYECTO DE GRADO II", %  session 15
	"PROYECTO DE GRADO II", %  session 16
	"EMPRENDIMIENTO", %  session 17
	"EMPRENDIMIENTO", %  session 18
	"PROGRAMACIÓN I", %  session 19
	"PROGRAMACIÓN I", %  session 20
	"PROGRAMACIÓN I", %  session 21
	"PROGRAMACIÓN I", %  session 22
	"PROGRAMACIÓN I", %  session 23
	"PROGRAMACIÓN I", %  session 24
	"PROGRAMACIÓN I", %  session 25
	"PROGRAMACIÓN I", %  session 26
	"PROGRAMACIÓN I", %  session 27
	"PROGRAMACIÓN I", %  session 28
	"PROGRAMACIÓN I", %  session 29
	"PROGRAMACIÓN I", %  session 30
	"PROGRAMACIÓN I", %  session 31
	"PROGRAMACIÓN I", %  session 32
	"PROGRAMACIÓN I", %  session 33
	"INFORMÁTICA I", %  session 34
	"INFORMÁTICA I", %  session 35
	"INFORMÁTICA I", %  session 36
	"INFORMÁTICA I", %  session 37
	"DESARROLLO DEL PENSAMIENTO LÓGICO", %  session 38
	"DESARROLLO DEL PENSAMIENTO LÓGICO", %  session 39
	"DESARROLLO DEL PENSAMIENTO LÓGICO", %  session 40
	"DESARROLLO DEL PENSAMIENTO LÓGICO", %  session 41
	"DESARROLLO DEL PENSAMIENTO LÓGICO", %  session 42
	"DESARROLLO DEL PENSAMIENTO LÓGICO", %  session 43
	"TECNICAS DE LA COMUNICACIÓN", %  session 44
	"TECNICAS DE LA COMUNICACIÓN", %  session 45
	"TECNICAS DE LA COMUNICACIÓN", %  session 46
	"INTRODUCCIÓN A LA INFORMATICA", %  session 47
	"INTRODUCCIÓN A LA INFORMATICA", %  session 48
	"INTRODUCCIÓN A LA INFORMATICA", %  session 49
	"INTRODUCCIÓN A LA INFORMATICA", %  session 50
	"INTRODUCCIÓN A LA INFORMATICA", %  session 51
	"INTRODUCCIÓN A LA INFORMATICA", %  session 52
	"INTRODUCCIÓN A LA INFORMATICA", %  session 53
	"INTRODUCCIÓN A LA INFORMATICA", %  session 54
	"INTRODUCCIÓN A LA INFORMATICA", %  session 55
	"INTRODUCCIÓN A LA INFORMATICA", %  session 56
	"PROGRAMACIÓN II", %  session 57
	"PROGRAMACIÓN II", %  session 58
	"PROGRAMACIÓN II", %  session 59
	"PROGRAMACIÓN II", %  session 60
	"PROGRAMACIÓN II", %  session 61
	"PROGRAMACIÓN II", %  session 62
	"PROGRAMACIÓN II", %  session 63
	"PROGRAMACIÓN II", %  session 64
	"PROGRAMACIÓN II", %  session 65
	"ESTRUCTURA DE DATOS", %  session 66
	"ESTRUCTURA DE DATOS", %  session 67
	"ESTRUCTURA DE DATOS", %  session 68
	"ESTRUCTURA DE DATOS", %  session 69
	"ESTRUCTURA DE DATOS", %  session 70
	"ESTRUCTURA DE DATOS", %  session 71
	"ESTRUCTURA DE DATOS", %  session 72
	"ESTRUCTURA DE DATOS", %  session 73
	"ESTRUCTURA DE DATOS", %  session 74
	"LÓGICA", %  session 75
	"LÓGICA", %  session 76
	"LÓGICA", %  session 77
	"LÓGICA", %  session 78
	"LÓGICA", %  session 79
	"LÓGICA", %  session 80
	"GRAMATICAS Y LENGUAJES FORMALES", %  session 81
	"GRAMATICAS Y LENGUAJES FORMALES", %  session 82
	"GRAMATICAS Y LENGUAJES FORMALES", %  session 83
	"GRAMATICAS Y LENGUAJES FORMALES", %  session 84
	"GRAMATICAS Y LENGUAJES FORMALES", %  session 85
	"GRAMATICAS Y LENGUAJES FORMALES", %  session 86
	"PROGRAMACIÓN III", %  session 87
	"PROGRAMACIÓN III", %  session 88
	"PROGRAMACIÓN III", %  session 89
	"PROGRAMACIÓN III", %  session 90
	"PROGRAMACIÓN III", %  session 91
	"PROGRAMACIÓN III", %  session 92
	"FUNDAMENTOS DE  ELECTRONICA", %  session 93
	"FUNDAMENTOS DE  ELECTRONICA", %  session 94
	"FUNDAMENTOS DE  ELECTRONICA", %  session 95
	"FUNDAMENTOS DE  ELECTRONICA", %  session 96
	"TEORIA DE SISTEMAS", %  session 97
	"TEORIA DE SISTEMAS", %  session 98
	"ADMINISTRACIÓN DE EMPRESAS", %  session 99
	"ADMINISTRACIÓN DE EMPRESAS", %  session 100
	"ADMINISTRACIÓN DE EMPRESAS", %  session 101
	"ADMINISTRACIÓN DE EMPRESAS", %  session 102
	"ESTADISTICA", %  session 103
	"ESTADISTICA", %  session 104
	"ESTADISTICA", %  session 105
	"ESTADISTICA", %  session 106
	"LABORATORIO DE ELECTRONICA", %  session 107
	"LABORATORIO DE ELECTRONICA", %  session 108
	"LABORATORIO DE ELECTRONICA", %  session 109
	"LABORATORIO DE ELECTRONICA", %  session 110
	"PROGRAMACIÓN IV", %  session 111
	"PROGRAMACIÓN IV", %  session 112
	"PROGRAMACIÓN IV", %  session 113
	"PROGRAMACIÓN IV", %  session 114
	"ARQUITECTURA DE COMPUTADORES", %  session 115
	"ARQUITECTURA DE COMPUTADORES", %  session 116
	"ARQUITECTURA DE COMPUTADORES", %  session 117
	"ARQUITECTURA DE COMPUTADORES", %  session 118
	"COMPUTACIÓN GRÁFICA", %  session 119
	"COMPUTACIÓN GRÁFICA", %  session 120
	"COMPUTACIÓN GRÁFICA", %  session 121
	"COMPUTACIÓN GRÁFICA", %  session 122
	"ELECTRONICA DIGITAL", %  session 123
	"ELECTRONICA DIGITAL", %  session 124
	"ELECTRONICA DIGITAL", %  session 125
	"ELECTRONICA DIGITAL", %  session 126
	"BASE DE DATOS I", %  session 127
	"BASE DE DATOS I", %  session 128
	"BASE DE DATOS I", %  session 129
	"INVESTIGACIÓN DE OPERACIONES", %  session 130
	"INVESTIGACIÓN DE OPERACIONES", %  session 131
	"INVESTIGACIÓN DE OPERACIONES", %  session 132
	"INVESTIGACIÓN DE OPERACIONES", %  session 133
	"ESTADÍSTICA ESPECIAL", %  session 134
	"ESTADÍSTICA ESPECIAL", %  session 135
	"ESTADÍSTICA ESPECIAL", %  session 136
	"ESTADÍSTICA ESPECIAL", %  session 137
	"INGENIERÍA DE SOFWARE I", %  session 138
	"INGENIERÍA DE SOFWARE I", %  session 139
	"INGENIERÍA DE SOFWARE I", %  session 140
	"COMUNICACIONES I", %  session 141
	"COMUNICACIONES I", %  session 142
	"COMUNICACIONES I", %  session 143
	"COMUNICACIONES I", %  session 144
	"SISTEMAS OPERATIVOS I", %  session 145
	"SISTEMAS OPERATIVOS I", %  session 146
	"SISTEMAS OPERATIVOS I", %  session 147
	"COMPILADORES", %  session 148
	"COMPILADORES", %  session 149
	"COMPILADORES", %  session 150
	"COMPILADORES", %  session 151
	"LABORATORIO DE ELECTRONICA DIGITAL", %  session 152
	"LABORATORIO DE ELECTRONICA DIGITAL", %  session 153
	"LABORATORIO DE ELECTRONICA DIGITAL", %  session 154
	"LABORATORIO DE ELECTRONICA DIGITAL", %  session 155
	"INTELIGENCIA ARTIFICIAL", %  session 156
	"INTELIGENCIA ARTIFICIAL", %  session 157
	"INTELIGENCIA ARTIFICIAL", %  session 158
	"INTELIGENCIA ARTIFICIAL", %  session 159
	"COMUNICACIONES II", %  session 160
	"COMUNICACIONES II", %  session 161
	"LEGISLACIÓN, ÉTICA Y CONTRATACIÓN", %  session 162
	"LEGISLACIÓN, ÉTICA Y CONTRATACIÓN", %  session 163
	"COMPUTACION BLANDA", %  session 164
	"COMPUTACION BLANDA", %  session 165
	"COMPUTACION BLANDA", %  session 166
	"COMPUTACION BLANDA", %  session 167
	"LABORATORIO DE SOFTWARE", %  session 168
	"LABORATORIO DE SOFTWARE", %  session 169
	"LABORATORIO DE SOFTWARE", %  session 170
	"LABORATORIO DE SOFTWARE", %  session 171
	"LABORATORIO DE SOFTWARE", %  session 172
	"LABORATORIO DE SOFTWARE", %  session 173
	"INGENIERÍA DE SOFTWARE II", %  session 174
	"INGENIERÍA DE SOFTWARE II", %  session 175
	"INGENIERÍA DE SOFTWARE II", %  session 176
	"INGENIERÍA DE SOFTWARE II", %  session 177
	"INGENIERÍA DE SOFTWARE II", %  session 178
	"INGENIERÍA DE SOFTWARE II", %  session 179
	"SISTEMAS DISTRIBUIDOS", %  session 180
	"SISTEMAS DISTRIBUIDOS", %  session 181
	"SISTEMAS DISTRIBUIDOS", %  session 182
	"SISTEMAS DISTRIBUIDOS", %  session 183
	"COMUNICACIONES III", %  session 184
	"COMUNICACIONES III", %  session 185
	"ARQUITECTURA CLIENTE/ SERVIDOR", %  session 186
	"ARQUITECTURA CLIENTE/ SERVIDOR", %  session 187
	"ARQUITECTURA CLIENTE/ SERVIDOR", %  session 188
	"ARQUITECTURA CLIENTE/ SERVIDOR", %  session 189
	"ARQUITECTURA CLIENTE/ SERVIDOR", %  session 190
	"ARQUITECTURA CLIENTE/ SERVIDOR", %  session 191
	"ADMINISTRACIÓN DE PROYECTOS DE SOFTWARE", %  session 192
	"ADMINISTRACIÓN DE PROYECTOS DE SOFTWARE", %  session 193
	"ADMINISTRACIÓN DE PROYECTOS DE SOFTWARE", %  session 194
	"ADMINISTRACIÓN DE PROYECTOS DE SOFTWARE", %  session 195
	"PROYECTO DE GRADO I", %  session 196
	"PROYECTO DE GRADO I", %  session 197
	"INGENIERÍA DEL SOFTWARE III", %  session 198
	"INGENIERÍA DEL SOFTWARE III", %  session 199
	"INGENIERÍA DEL SOFTWARE III", %  session 200
	"INGENIERÍA DEL SOFTWARE III", %  session 201
	"HPC (HIGH PERFORMANCE COMPUTING) I", %  session 202
	"HPC (HIGH PERFORMANCE COMPUTING) I", %  session 203
	
	];

  array [numSessions] of string:lecture=[
  "b'4A75616E204465204A6573C3BA732056656C6F7A61204D6F7261'", %  session 0
	"b'4A75616E204465204A6573C3BA732056656C6F7A61204D6F7261'", %  session 1
	"b'446F726973204C696C69616E61204D617274696E657A2052656E646F6E'", %  session 2
	"b'446F726973204C696C69616E61204D617274696E657A2052656E646F6E'", %  session 3
	"b'416E61204D696C656E6120526976617320526573747265706F'", %  session 4
	"b'416E61204D696C656E6120526976617320526573747265706F'", %  session 5
	"b'5061756C6120416E647265612052656E6769666F2056696C6C61'", %  session 6
	"b'416E67656C61204D61726961204F7370696E6120476172636961'", %  session 7
	"b'416E67656C61204D61726961204F7370696E6120476172636961'", %  session 8
	"b'446F726973204C696C69616E61204D617274696E657A2052656E646F6E'", %  session 9
	"b'446F726973204C696C69616E61204D617274696E657A2052656E646F6E'", %  session 10
	"b'4C757A20457374656C612056616C656E636961204179616C61'", %  session 11
	"b'4C757A20457374656C612056616C656E636961204179616C61'", %  session 12
	"b'416E67656C61204D61726961204F7370696E6120476172636961'", %  session 13
	"b'416E67656C61204D61726961204F7370696E6120476172636961'", %  session 14
	"b'446F726973204C696C69616E61204D617274696E657A2052656E646F6E'", %  session 15
	"b'5269636172646FC2A0204D6F72656E6F204C617665726465'", %  session 16
	"b'4C757A20457374656C612056616C656E636961204179616C61'", %  session 17
	"b'4C757A20457374656C612056616C656E636961204179616C61'", %  session 18
	"b'4365736172204D616E75656C2043617374696C6C6F20526F6472696775657A'", %  session 19
	"b'4365736172204D616E75656C2043617374696C6C6F20526F6472696775657A'", %  session 20
	"b'4365736172204D616E75656C2043617374696C6C6F20526F6472696775657A'", %  session 21
	"b'4A756C696F20436573617220436861766172726F20506F72726173'", %  session 22
	"b'4A756C696F20436573617220436861766172726F20506F72726173'", %  session 23
	"b'4A756C696F20436573617220436861766172726F20506F72726173'", %  session 24
	"b'4F6D6172204976616E205472656A6F73204275726974696361'", %  session 25
	"b'4F6D6172204976616E205472656A6F73204275726974696361'", %  session 26
	"b'4F6D6172204976616E205472656A6F73204275726974696361'", %  session 27
	"b'43C3A9736172204175677573746F204A6172616D696C6C6F204163657665646F'", %  session 28
	"b'43C3A9736172204175677573746F204A6172616D696C6C6F204163657665646F'", %  session 29
	"b'43C3A9736172204175677573746F204A6172616D696C6C6F204163657665646F'", %  session 30
	"b'4672616E636973636F20416C656A616E64726F204D6564696E612041677569727265'", %  session 31
	"b'4672616E636973636F20416C656A616E64726F204D6564696E612041677569727265'", %  session 32
	"b'4672616E636973636F20416C656A616E64726F204D6564696E612041677569727265'", %  session 33
	"b'5269636172646FC2A020466CC3B372657A2056C3A96C657A'", %  session 34
	"b'42697669616E612059756C696574682041677569727265204172696173'", %  session 35
	"b'C3816E67656C61204D6172C3AD6120436F7274C3A9732047617263C3A973'", %  session 36
	"b'4A6F73C3A9205261C3BA6C204D6F72616C65732052616DC3AD72657A'", %  session 37
	"b'4775696C6C65726D6F204865726E616E20546F726F204D656A6961'", %  session 38
	"b'4775696C6C65726D6F204865726E616E20546F726F204D656A6961'", %  session 39
	"b'4A75616E204361726C6F732047757469C3A97272657A204D617274C3AD6E657A'", %  session 40
	"b'4A75616E204361726C6F732047757469C3A97272657A204D617274C3AD6E657A'", %  session 41
	"b'476C6F726961204E616E637920426C616E64C3B36E20426C616E64C3B36E'", %  session 42
	"b'476C6F726961204E616E637920426C616E64C3B36E20426C616E64C3B36E'", %  session 43
	"b'4D61726961205472696E6964616420436172646F6E61205A6170617461'", %  session 44
	"b'4A6F68616E61204361726F6C696E61204F63686F61204172696173'", %  session 45
	"b'4A6F736520467265646479204D6172756C616E646120426574616E636F7572'", %  session 46
	"b'4361726C6F7320416C626572746F204F63616D706F20536570756C76656461'", %  session 47
	"b'4361726C6F7320416C626572746F204F63616D706F20536570756C76656461'", %  session 48
	"b'4A61646572204465204A6573C3BA732047C3B36D657A204361726D6F6E61'", %  session 49
	"b'4A61646572204465204A6573C3BA732047C3B36D657A204361726D6F6E61'", %  session 50
	"b'4875676F2048756D626572746F204D6F72616C6573205065C3B161'", %  session 51
	"b'4875676F2048756D626572746F204D6F72616C6573205065C3B161'", %  session 52
	"b'5269636172646F20416E746F6E696F204265726D7564657A204F736F72696F'", %  session 53
	"b'5269636172646F20416E746F6E696F204265726D7564657A204F736F72696F'", %  session 54
	"b'4A756C696F204365736172204C6F70657A20426574616E637572'", %  session 55
	"b'4A756C696F204365736172204C6F70657A20426574616E637572'", %  session 56
	"b'4A756C696F20436573617220436861766172726F20506F72726173'", %  session 57
	"b'4A756C696F20436573617220436861766172726F20506F72726173'", %  session 58
	"b'4A756C696F20436573617220436861766172726F20506F72726173'", %  session 59
	"b'4F6D6172204976616E205472656A6F73204275726974696361'", %  session 60
	"b'4F6D6172204976616E205472656A6F73204275726974696361'", %  session 61
	"b'4F6D6172204976616E205472656A6F73204275726974696361'", %  session 62
	"b'4C756973204564756172646F204D75C3B16F7A20477565727265726F'", %  session 63
	"b'4C756973204564756172646F204D75C3B16F7A20477565727265726F'", %  session 64
	"b'4C756973204564756172646F204D75C3B16F7A20477565727265726F'", %  session 65
	"b'4361726C6F73204175677573746F204D656E65736573204573636F626172'", %  session 66
	"b'4361726C6F73204175677573746F204D656E65736573204573636F626172'", %  session 67
	"b'4361726C6F73204175677573746F204D656E65736573204573636F626172'", %  session 68
	"b'4775737461766F2041646F6C666F2047757469657272657A205361626F67616C'", %  session 69
	"b'4775737461766F2041646F6C666F2047757469657272657A205361626F67616C'", %  session 70
	"b'4775737461766F2041646F6C666F2047757469657272657A205361626F67616C'", %  session 71
	"b'4875676F2048756D626572746F204D6F72616C6573205065C3B161'", %  session 72
	"b'4875676F2048756D626572746F204D6F72616C6573205065C3B161'", %  session 73
	"b'4875676F2048756D626572746F204D6F72616C6573205065C3B161'", %  session 74
	"b'53656261737469C3A16EC2A02047C3B36D657A20476F6E7AC3A16C657A'", %  session 75
	"b'53656261737469C3A16EC2A02047C3B36D657A20476F6E7AC3A16C657A'", %  session 76
	"b'447562616EC2A0205661726761732043616E6F'", %  session 77
	"b'447562616EC2A0205661726761732043616E6F'", %  session 78
	"b'4A756C696F204865726E616E646F20566172676173204D6F72656E6F'", %  session 79
	"b'4A756C696F204865726E616E646F20566172676173204D6F72656E6F'", %  session 80
	"b'4A6F726765204976C3A16E2052C3AD6F732050617469C3B16F'", %  session 81
	"b'4A6F726765204976C3A16E2052C3AD6F732050617469C3B16F'", %  session 82
	"b'4A6F726765204976C3A16E2052C3AD6F732050617469C3B16F'", %  session 83
	"b'4875676F2048756D626572746F204D6F72616C6573205065C3B161'", %  session 84
	"b'4875676F2048756D626572746F204D6F72616C6573205065C3B161'", %  session 85
	"b'4875676F2048756D626572746F204D6F72616C6573205065C3B161'", %  session 86
	"b'4365736172204D616E75656C2043617374696C6C6F20526F6472696775657A'", %  session 87
	"b'4365736172204D616E75656C2043617374696C6C6F20526F6472696775657A'", %  session 88
	"b'4775737461766F2041646F6C666F2047757469657272657A205361626F67616C'", %  session 89
	"b'4775737461766F2041646F6C666F2047757469657272657A205361626F67616C'", %  session 90
	"b'416C656A616E64726FC2A020526F6461732056C3A1737175657A'", %  session 91
	"b'416C656A616E64726FC2A020526F6461732056C3A1737175657A'", %  session 92
	"b'4A75616E2044617669642048696E63617069C3A9205A6561'", %  session 93
	"b'4A75616E2044617669642048696E63617069C3A9205A6561'", %  session 94
	"b'4A75616E2044617669642048696E63617069C3A9205A6561'", %  session 95
	"b'4A75616E2044617669642048696E63617069C3A9205A6561'", %  session 96
	"b'5361756C6F204465204A6573C3BA7320546F727265732052656E6769666F'", %  session 97
	"b'53656261737469C3A16EC2A02047C3B36D657A20476F6E7AC3A16C657A'", %  session 98
	"b'4A6F68616E61204361726F6C696E61204F63686F61204172696173'", %  session 99
	"b'4A6F68616E61204361726F6C696E61204F63686F61204172696173'", %  session 100
	"b'4C757A20457374656C612056616C656E636961204179616C61'", %  session 101
	"b'4C757A20457374656C612056616C656E636961204179616C61'", %  session 102
	"b'5361756C6F204465204A6573C3BA7320546F727265732052656E6769666F'", %  session 103
	"b'5361756C6F204465204A6573C3BA7320546F727265732052656E6769666F'", %  session 104
	"b'49736162656C204372697374696E612052C3AD6F7320476972616C646F'", %  session 105
	"b'49736162656C204372697374696E612052C3AD6F7320476972616C646F'", %  session 106
	"b'4A75616E2044617669642048696E63617069C3A9205A6561'", %  session 107
	"b'4A75616E2044617669642048696E63617069C3A9205A6561'", %  session 108
	"b'4A75616E2044617669642048696E63617069C3A9205A6561'", %  session 109
	"b'4A75616E2044617669642048696E63617069C3A9205A6561'", %  session 110
	"b'4775696C6C65726D6F20526F626572746F20536F6C61727465204D617274C3AD6E657A'", %  session 111
	"b'4775696C6C65726D6F20526F626572746F20536F6C61727465204D617274C3AD6E657A'", %  session 112
	"b'416E67656C204175677573746F2041677564656C6F205A6170617461'", %  session 113
	"b'416E67656C204175677573746F2041677564656C6F205A6170617461'", %  session 114
	"b'4A6F686E20486169626572204F736F72696F2052C3AD6F73'", %  session 115
	"b'4A6F686E20486169626572204F736F72696F2052C3AD6F73'", %  session 116
	"b'4A6F686E20486169626572204F736F72696F2052C3AD6F73'", %  session 117
	"b'4A6F686E20486169626572204F736F72696F2052C3AD6F73'", %  session 118
	"b'4361726C6F73204D6172696F204D6564696E61204F74C3A16C7661726F'", %  session 119
	"b'4361726C6F73204D6172696F204D6564696E61204F74C3A16C7661726F'", %  session 120
	"b'4361726C6F7320416E6472C3A973204CC3B370657A20'", %  session 121
	"b'4361726C6F7320416E6472C3A973204CC3B370657A20'", %  session 122
	"b'52616D69726F20416E6472C3A9732042617272696F732056616C656E636961'", %  session 123
	"b'52616D69726F20416E6472C3A9732042617272696F732056616C656E636961'", %  session 124
	"b'52616D69726F20416E6472C3A9732042617272696F732056616C656E636961'", %  session 125
	"b'52616D69726F20416E6472C3A9732042617272696F732056616C656E636961'", %  session 126
	"b'4361726C6F7320416C626572746F204F63616D706F20536570756C76656461'", %  session 127
	"b'4361726C6F7320416C626572746F204F63616D706F20536570756C76656461'", %  session 128
	"b'4361726C6F7320416C626572746F204F63616D706F20536570756C76656461'", %  session 129
	"b'4C757A20457374656C612056616C656E636961204179616C61'", %  session 130
	"b'4C757A20457374656C612056616C656E636961204179616C61'", %  session 131
	"b'5361756C6F204465204A6573C3BA7320546F727265732052656E6769666F'", %  session 132
	"b'5361756C6F204465204A6573C3BA7320546F727265732052656E6769666F'", %  session 133
	"b'49736162656C204372697374696E612052C3AD6F7320476972616C646F'", %  session 134
	"b'49736162656C204372697374696E612052C3AD6F7320476972616C646F'", %  session 135
	"b'4A6F68616E61204361726F6C696E61204F63686F61204172696173'", %  session 136
	"b'4A6F68616E61204361726F6C696E61204F63686F61204172696173'", %  session 137
	"b'4A6F72676520416C626572746F2047616C76657A20436F72726561'", %  session 138
	"b'4A6F72676520416C626572746F2047616C76657A20436F72726561'", %  session 139
	"b'4A6F72676520416C626572746F2047616C76657A20436F72726561'", %  session 140
	"b'416E67656C204175677573746F2041677564656C6F205A6170617461'", %  session 141
	"b'416E67656C204175677573746F2041677564656C6F205A6170617461'", %  session 142
	"b'4A6F736520416E64726573205572756275726F20546F626F6E'", %  session 143
	"b'4A6F736520416E64726573205572756275726F20546F626F6E'", %  session 144
	"b'4A75616E204465204A6573C3BA732056656C6F7A61204D6F7261'", %  session 145
	"b'4A75616E204465204A6573C3BA732056656C6F7A61204D6F7261'", %  session 146
	"b'4A75616E204465204A6573C3BA732056656C6F7A61204D6F7261'", %  session 147
	"b'416E67656C204175677573746F2041677564656C6F205A6170617461'", %  session 148
	"b'416E67656C204175677573746F2041677564656C6F205A6170617461'", %  session 149
	"b'43C3A9736172204175677573746F204A6172616D696C6C6F204163657665646F'", %  session 150
	"b'43C3A9736172204175677573746F204A6172616D696C6C6F204163657665646F'", %  session 151
	"b'52616D69726F20416E6472C3A9732042617272696F732056616C656E636961'", %  session 152
	"b'52616D69726F20416E6472C3A9732042617272696F732056616C656E636961'", %  session 153
	"b'52616D69726F20416E6472C3A9732042617272696F732056616C656E636961'", %  session 154
	"b'52616D69726F20416E6472C3A9732042617272696F732056616C656E636961'", %  session 155
	"b'416E67656C204175677573746F2041677564656C6F205A6170617461'", %  session 156
	"b'416E67656C204175677573746F2041677564656C6F205A6170617461'", %  session 157
	"b'416E6472C3A973204775696C6C65726D6F2056656CC3A1737175657A2047C3B36D657A'", %  session 158
	"b'416E6472C3A973204775696C6C65726D6F2056656CC3A1737175657A2047C3B36D657A'", %  session 159
	"b'416E61204D6172C3AD61204465204C6173204D65726365646573204CC3B370657A20456368657665727279'", %  session 160
	"b'416E61204D6172C3AD61204465204C6173204D65726365646573204CC3B370657A20456368657665727279'", %  session 161
	"b'4D6175726963696FC2A0204D6F72656E6F2056C3A1737175657A'", %  session 162
	"b'4A75616E204465204A6573C3BA732056656C6F7A61204D6F7261'", %  session 163
	"b'4A756C696F204865726E616E646F20566172676173204D6F72656E6F'", %  session 164
	"b'4A756C696F204865726E616E646F20566172676173204D6F72656E6F'", %  session 165
	"b'416E6472C3A973204775696C6C65726D6F2056656CC3A1737175657A2047C3B36D657A'", %  session 166
	"b'416E6472C3A973204775696C6C65726D6F2056656CC3A1737175657A2047C3B36D657A'", %  session 167
	"b'5061756C6120416E647265612056696C6C612053C3A16E6368657A'", %  session 168
	"b'5061756C6120416E647265612056696C6C612053C3A16E6368657A'", %  session 169
	"b'5061756C6120416E647265612056696C6C612053C3A16E6368657A'", %  session 170
	"b'5061756C6120416E647265612056696C6C612053C3A16E6368657A'", %  session 171
	"b'5061756C6120416E647265612056696C6C612053C3A16E6368657A'", %  session 172
	"b'5061756C6120416E647265612056696C6C612053C3A16E6368657A'", %  session 173
	"b'4A6F72676520416C626572746F2047616C76657A20436F72726561'", %  session 174
	"b'4A6F72676520416C626572746F2047616C76657A20436F72726561'", %  session 175
	"b'4A6F72676520416C626572746F2047616C76657A20436F72726561'", %  session 176
	"b'4775696C6C65726D6F20526F626572746F20536F6C61727465204D617274C3AD6E657A'", %  session 177
	"b'4775696C6C65726D6F20526F626572746F20536F6C61727465204D617274C3AD6E657A'", %  session 178
	"b'4775696C6C65726D6F20526F626572746F20536F6C61727465204D617274C3AD6E657A'", %  session 179
	"b'43C3A9736172204175677573746F204A6172616D696C6C6F204163657665646F'", %  session 180
	"b'43C3A9736172204175677573746F204A6172616D696C6C6F204163657665646F'", %  session 181
	"b'4A6F736520416E64726573205572756275726F20546F626F6E'", %  session 182
	"b'4A6F736520416E64726573205572756275726F20546F626F6E'", %  session 183
	"b'416E61204D6172C3AD61204465204C6173204D65726365646573204CC3B370657A20456368657665727279'", %  session 184
	"b'416E61204D6172C3AD61204465204C6173204D65726365646573204CC3B370657A20456368657665727279'", %  session 185
	"b'4361726C6F7320416E6472C3A973204CC3B370657A20'", %  session 186
	"b'4361726C6F7320416E6472C3A973204CC3B370657A20'", %  session 187
	"b'4361726C6F7320416E6472C3A973204CC3B370657A20'", %  session 188
	"b'4775737461766F2041646F6C666F2047757469657272657A205361626F67616C'", %  session 189
	"b'4775737461766F2041646F6C666F2047757469657272657A205361626F67616C'", %  session 190
	"b'4775737461766F2041646F6C666F2047757469657272657A205361626F67616C'", %  session 191
	"b'4A75616E204465204A6573C3BA732056656C6F7A61204D6F7261'", %  session 192
	"b'4A75616E204465204A6573C3BA732056656C6F7A61204D6F7261'", %  session 193
	"b'5061756C6120416E647265612056696C6C612053C3A16E6368657A'", %  session 194
	"b'5061756C6120416E647265612056696C6C612053C3A16E6368657A'", %  session 195
	"b'4361726C6F7320416C626572746F204F63616D706F20536570756C76656461'", %  session 196
	"b'4775696C6C65726D6F20526F626572746F20536F6C61727465204D617274C3AD6E657A'", %  session 197
	"b'4361726C6F7320416C626572746F204F63616D706F20536570756C76656461'", %  session 198
	"b'4361726C6F7320416C626572746F204F63616D706F20536570756C76656461'", %  session 199
	"b'4775696C6C65726D6F20526F626572746F20536F6C61727465204D617274C3AD6E657A'", %  session 200
	"b'4775696C6C65726D6F20526F626572746F20536F6C61727465204D617274C3AD6E657A'", %  session 201
	"b'4A6F686E20486169626572204F736F72696F2052C3AD6F73'", %  session 202
	"b'4A6F686E20486169626572204F736F72696F2052C3AD6F73'", %  session 203
  ];
	array [numSessions] of string:courseGroup =[
	"IS013-1", %  session 0
	"IS013-1", %  session 1
	"IS023-1", %  session 2
	"IS023-1", %  session 3
	"IS031-1", %  session 4
	"IS031-2", %  session 5
	"IS031-3", %  session 6
	"IS042-1", %  session 7
	"IS042-1", %  session 8
	"IS042-2", %  session 9
	"IS042-2", %  session 10
	"IS053-1", %  session 11
	"IS053-1", %  session 12
	"IS053-2", %  session 13
	"IS053-2", %  session 14
	"IS066-1", %  session 15
	"IS066-2", %  session 16
	"IS073-1", %  session 17
	"IS073-1", %  session 18
	"IS105-1", %  session 19
	"IS105-1", %  session 20
	"IS105-1", %  session 21
	"IS105-2", %  session 22
	"IS105-2", %  session 23
	"IS105-2", %  session 24
	"IS105-3", %  session 25
	"IS105-3", %  session 26
	"IS105-3", %  session 27
	"IS105-4", %  session 28
	"IS105-4", %  session 29
	"IS105-4", %  session 30
	"IS105-5", %  session 31
	"IS105-5", %  session 32
	"IS105-5", %  session 33
	"IS133-1", %  session 34
	"IS133-2", %  session 35
	"IS133-3", %  session 36
	"IS133-4", %  session 37
	"IS142-1", %  session 38
	"IS142-1", %  session 39
	"IS142-2", %  session 40
	"IS142-2", %  session 41
	"IS142-3", %  session 42
	"IS142-3", %  session 43
	"IS184-1", %  session 44
	"IS184-2", %  session 45
	"IS184-3", %  session 46
	"IS193-1", %  session 47
	"IS193-1", %  session 48
	"IS193-2", %  session 49
	"IS193-2", %  session 50
	"IS193-3", %  session 51
	"IS193-3", %  session 52
	"IS193-4", %  session 53
	"IS193-4", %  session 54
	"IS193-5", %  session 55
	"IS193-5", %  session 56
	"IS284-1", %  session 57
	"IS284-1", %  session 58
	"IS284-1", %  session 59
	"IS284-2", %  session 60
	"IS284-2", %  session 61
	"IS284-2", %  session 62
	"IS284-3", %  session 63
	"IS284-3", %  session 64
	"IS284-3", %  session 65
	"IS304-1", %  session 66
	"IS304-1", %  session 67
	"IS304-1", %  session 68
	"IS304-2", %  session 69
	"IS304-2", %  session 70
	"IS304-2", %  session 71
	"IS304-3", %  session 72
	"IS304-3", %  session 73
	"IS304-3", %  session 74
	"IS323-1", %  session 75
	"IS323-1", %  session 76
	"IS323-2", %  session 77
	"IS323-2", %  session 78
	"IS323-3", %  session 79
	"IS323-3", %  session 80
	"IS405-1", %  session 81
	"IS405-1", %  session 82
	"IS405-1", %  session 83
	"IS405-2", %  session 84
	"IS405-2", %  session 85
	"IS405-2", %  session 86
	"IS453-1", %  session 87
	"IS453-1", %  session 88
	"IS453-2", %  session 89
	"IS453-2", %  session 90
	"IS453-3", %  session 91
	"IS453-3", %  session 92
	"IS474-1", %  session 93
	"IS474-1", %  session 94
	"IS474-2", %  session 95
	"IS474-2", %  session 96
	"IS482-1", %  session 97
	"IS482-2", %  session 98
	"IS503-1", %  session 99
	"IS503-1", %  session 100
	"IS503-2", %  session 101
	"IS503-2", %  session 102
	"IS512-1", %  session 103
	"IS512-1", %  session 104
	"IS512-2", %  session 105
	"IS512-2", %  session 106
	"IS543-1", %  session 107
	"IS543-2", %  session 108
	"IS543-3", %  session 109
	"IS543-4", %  session 110
	"IS553-1", %  session 111
	"IS553-1", %  session 112
	"IS553-2", %  session 113
	"IS553-2", %  session 114
	"IS614-1", %  session 115
	"IS614-1", %  session 116
	"IS614-2", %  session 117
	"IS614-2", %  session 118
	"IS623-1", %  session 119
	"IS623-1", %  session 120
	"IS623-2", %  session 121
	"IS623-2", %  session 122
	"IS634-1", %  session 123
	"IS634-1", %  session 124
	"IS634-2", %  session 125
	"IS634-2", %  session 126
	"IS644-1", %  session 127
	"IS644-1", %  session 128
	"IS644-1", %  session 129
	"IS653-1", %  session 130
	"IS653-1", %  session 131
	"IS653-2", %  session 132
	"IS653-2", %  session 133
	"IS692-1", %  session 134
	"IS692-1", %  session 135
	"IS692-2", %  session 136
	"IS692-2", %  session 137
	"IS714-1", %  session 138
	"IS714-1", %  session 139
	"IS714-1", %  session 140
	"IS723-1", %  session 141
	"IS723-1", %  session 142
	"IS723-2", %  session 143
	"IS723-2", %  session 144
	"IS734-1", %  session 145
	"IS734-1", %  session 146
	"IS734-1", %  session 147
	"IS753-1", %  session 148
	"IS753-1", %  session 149
	"IS753-2", %  session 150
	"IS753-2", %  session 151
	"IS773-1", %  session 152
	"IS773-2", %  session 153
	"IS773-3", %  session 154
	"IS773-4", %  session 155
	"IS784-1", %  session 156
	"IS784-1", %  session 157
	"IS784-2", %  session 158
	"IS784-2", %  session 159
	"IS823-2", %  session 160
	"IS823-3", %  session 161
	"IS842-1", %  session 162
	"IS842-2", %  session 163
	"IS845-1", %  session 164
	"IS845-1", %  session 165
	"IS845-2", %  session 166
	"IS845-2", %  session 167
	"IS873-1", %  session 168
	"IS873-1", %  session 169
	"IS873-2", %  session 170
	"IS873-2", %  session 171
	"IS873-3", %  session 172
	"IS873-3", %  session 173
	"IS884-1", %  session 174
	"IS884-1", %  session 175
	"IS884-1", %  session 176
	"IS884-2", %  session 177
	"IS884-2", %  session 178
	"IS884-2", %  session 179
	"IS893-1", %  session 180
	"IS893-1", %  session 181
	"IS893-2", %  session 182
	"IS893-2", %  session 183
	"IS923-1", %  session 184
	"IS923-3", %  session 185
	"IS924-1", %  session 186
	"IS924-1", %  session 187
	"IS924-1", %  session 188
	"IS924-2", %  session 189
	"IS924-2", %  session 190
	"IS924-2", %  session 191
	"IS953-1", %  session 192
	"IS953-1", %  session 193
	"IS953-2", %  session 194
	"IS953-2", %  session 195
	"IS962-1", %  session 196
	"IS962-2", %  session 197
	"IS9B3-1", %  session 198
	"IS9B3-1", %  session 199
	"IS9B3-3", %  session 200
	"IS9B3-3", %  session 201
	"IS9D3-1", %  session 202
	"IS9D3-1", %  session 203
	
	
	];
array[numSessions] of int :many= [
1,
1,
1,
1,
1,
1,
1,
1,
1,
1,
1,
1,
1,
1,
1,
1,
1,
1,
1,
1,
1,
1,
1,
1,
1,
1,
1,
1,
1,
1,
1,
1,
1,
1,
1,
1,
1,
1,
1,
1,
1,
1,
1,
1,
1,
1,
1,
1,
1,
1,
1,
1,
1,
1,
1,
1,
1,
1,
1,
1,
1,
1,
1,
1,
1,
1,
1,
1,
1,
1,
1,
1,
1,
1,
1,
1,
1,
1,
1,
1,
1,
1,
1,
1,
1,
1,
1,
1,
1,
1,
1,
1,
1,
1,
1,
1,
1,
1,
1,
1,
1,
1,
1,
1,
1,
1,
1,
1,
1,
1,
1,
1,
1,
1,
1,
1,
1,
1,
1,
1,
1,
1,
1,
1,
1,
1,
1,
1,
1,
1,
1,
1,
1,
1,
1,
1,
1,
1,
1,
1,
1,
1,
1,
1,
1,
1,
1,
1,
1,
1,
1,
1,
1,
1,
1,
1,
1,
1,
1,
1,
1,
1,
1,
1,
1,
1,
1,
1,
1,
1,
1,
1,
1,
1,
1,
1,
1,
1,
1,
1,
1,
1,
1,
1,
1,
1,
1,
1,
1,
1,
1,
1,
1,
1,
1,
1,
1,
1,
1,
1,
1,
1,
1,
1,

];
